
Log started (V12.10.0.0) Sat Apr  3 16:30:59 2021


Problem 'asset.lp' read.
Read time = 0.00 sec. (0.20 ticks)
New value for default parallel thread count: 1
New value for time limit in seconds: 300
Version identifier: 12.10.0.0 | 2019-11-26 | 843d4de
CPXPARAM_Threads                                 1
CPXPARAM_TimeLimit                               300
Found incumbent of value -0.889625 after 0.00 sec. (0.09 ticks)
Tried aggregator 3 times.
MIP Presolve eliminated 1508 rows and 1159 columns.
MIP Presolve modified 2074 coefficients.
Aggregator did 163 substitutions.
Reduced MIP has 325 rows, 358 columns, and 1369 nonzeros.
Reduced MIP has 268 binaries, 68 generals, 0 SOSs, and 0 indicators.
Presolve time = 0.01 sec. (4.65 ticks)
Probing fixed 20 vars, tightened 4 bounds.
Probing time = 0.00 sec. (0.80 ticks)
Cover probing fixed 0 vars, tightened 20 bounds.
Tried aggregator 2 times.
Detecting symmetries...
MIP Presolve eliminated 34 rows and 30 columns.
MIP Presolve modified 114 coefficients.
Aggregator did 1 substitutions.
Reduced MIP has 290 rows, 327 columns, and 1171 nonzeros.
Reduced MIP has 242 binaries, 64 generals, 0 SOSs, and 0 indicators.
Presolve time = 0.00 sec. (1.70 ticks)
Probing time = 0.00 sec. (0.67 ticks)
Clique table members: 889.
MIP emphasis: balance optimality and feasibility.
MIP search method: dynamic search.
Parallel mode: none, using 1 thread.
Root relaxation solution time = 0.00 sec. (2.47 ticks)

        Nodes                                         Cuts/
   Node  Left     Objective  IInf  Best Integer    Best Bound    ItCnt     Gap

*     0+    0                           -0.8896      181.4404              --- 
      0     0      149.0850    80       -0.8896      149.0850      221     --- 
      0     0      139.2940    80       -0.8896     Cuts: 172      373     --- 
      0     0      136.0024    80       -0.8896     Cuts: 122      461     --- 
      0     0      135.9259    80       -0.8896      Cuts: 45      492     --- 
      0     0      135.6530    80       -0.8896      Cuts: 44      528     --- 
      0     0      135.3841    80       -0.8896      Cuts: 31      563     --- 
Detecting symmetries...
      0     0      135.3058    80       -0.8896      Cuts: 29      588     --- 
      0     0      135.1861    80       -0.8896      Cuts: 17      624     --- 
      0     0      134.5945    80       -0.8896      Cuts: 19      664     --- 
      0     0      133.8826    80       -0.8896      Cuts: 30      694     --- 
      0     0      133.8824    80       -0.8896      Cuts: 25      711     --- 
      0     0      133.8823    80       -0.8896      Cuts: 27      726     --- 
*     0+    0                           15.7975      133.8823           747.49%
      0     0        cutoff             15.7975      133.8823      726  747.49%
Detecting symmetries...
      0     2      133.8823    92       15.7975      133.2986      726  743.79%
Elapsed time = 0.09 sec. (76.11 ticks, tree = 0.01 MB, solutions = 1)
*    20+   13                           97.4058      132.4093            35.94%
*    30+   19                          100.2466      132.4093            32.08%
*    34    20      integral     0      100.2470      132.4093     1296   32.08%
*    90+   60                          100.3082      130.2980            29.90%
*    95    62      integral     0      100.5475      130.2980     2399   29.59%
*   195+  132                          100.5482      126.7342            26.04%
*   331   212      integral     0      101.4769      126.2620     6873   24.42%
*   431+  245                          102.5472      125.0582            21.95%
*   431+  245                          102.5482      125.0582            21.95%
    683   336      105.0353    48      102.5482      122.0614    15747   19.03%
   1014   401      116.4813    65      102.5482      117.4151    23719   14.50%
*  1020+  405                          102.5482      117.4151            14.50%
*  1200+  434                          103.1080      116.2984            12.79%
*  1300+  441                          103.1081      115.1371            11.67%
   1354   445      108.8305    52      103.1081      114.5489    31726   11.10%
   1757   414      105.4187    41      103.1081      111.0565    40222    7.71%
   2277   244        cutoff            103.1081      106.7239    48232    3.51%

Clique cuts applied:  28
Cover cuts applied:  3
Implied bound cuts applied:  176
Flow cuts applied:  7
Mixed integer rounding cuts applied:  13
Zero-half cuts applied:  12
Gomory fractional cuts applied:  11

Root node processing (before b&c):
  Real time             =    0.09 sec. (76.29 ticks)
Sequential b&c:
  Real time             =    1.41 sec. (1438.75 ticks)
                          ------------
Total (root+branch&cut) =    1.50 sec. (1515.04 ticks)

Solution pool: 14 solutions saved.

MIP - Integer optimal, tolerance (0.0001/1e-06):  Objective =  1.0310807622e+02
Current MIP best bound =  1.0310879550e+02 (gap = 0.000719289, 0.00%)
Solution time =    1.50 sec.  Iterations = 50052  Nodes = 2575 (8)
Deterministic time = 1515.04 ticks  (1009.17 ticks/sec)


Incumbent solution
Variable Name           Solution Value
F                           110.000000
f1                            0.901924
f2                            5.990000
y47                           1.000000
y121                          1.000000
y184                          1.000000
y18                           1.000000
y63                           1.000000
y205                          1.000000
y1                            1.000000
y245                          1.000000
s9                            6.000000
s22                           6.000000
s26                           6.000000
s43                           6.000000
s44                           6.000000
s86                           6.000000
s99                           6.000000
s141                          6.000000
s142                          6.000000
s143                          6.000000
s149                          6.000000
s171                          6.000000
s182                          6.000000
s193                          6.000000
s224                          6.000000
s237                          6.000000
s250                          6.000000
s259                          6.000000
s264                          6.000000
s267                          6.000000
s29                           6.010000
s47                           6.197318
s251                          6.020000
s218                          6.140000
s121                          6.931296
s49                           6.260000
s104                          6.320000
s89                           6.340000
s184                          7.347133
s118                          6.430000
s185                          6.450000
s253                          6.470000
s200                          6.480000
s36                           6.570000
s233                          6.610000
s75                           6.620000
s210                          6.690000
s159                          6.730000
s18                           6.790000
s124                          6.830000
s63                           7.838407
s123                          6.950000
s240                          6.950000
s213                          6.960000
s212                          6.980000
s241                          7.010000
s274                          7.010000
s205                          7.648106
s228                          7.060000
s7                            7.080000
s1                            7.527274
s245                          7.918236
x217x1x1                      2.000000
x48x63x1                      1.000000
x214x121x1                    1.000000
x214x18x1                     1.000000
x174x18x1                     1.000000
x216x121x3                    1.000000
x216x184x3                    1.000000
x249x205x3                    2.000000
x48x63x3                      1.000000
x91x47x3                      1.000000
x2x47x3                       1.000000
x47x0x3                       1.000000
x47x184x3                     1.000000
x121x0x1                      1.000000
x121x0x3                      1.000000
x184x0x3                      2.000000
x18x245x1                     2.000000
x63x0x1                       1.000000
x63x0x3                       1.000000
x205x0x3                      2.000000
x1x0x1                        2.000000
x245x0x1                      2.000000
s216                          5.351185
z216z121z3                    1.000000
z216z184z3                    1.000000
s249                          5.368272
z249z205z3                    1.000000
s217                          5.845239
z217z1z1                      1.000000
z217z245z1                    1.000000
s48                           5.996448
z48z63z1                      1.000000
z48z63z3                      1.000000
s91                           4.522200
z91z264z3                     1.000000
z91z47z3                      1.000000
z91z49z3                      1.000000
z91z89z3                      1.000000
z91z184z3                     1.000000
z91z185z3                     1.000000
z91z205z3                     1.000000
s2                            4.577300
z2z264z3                      1.000000
z2z47z3                       1.000000
z2z49z3                       1.000000
z2z89z3                       1.000000
z2z184z3                      1.000000
z2z185z3                      1.000000
z2z205z3                      1.000000
s214                          4.675830
z214z121z1                    1.000000
z214z233z1                    1.000000
z214z210z1                    1.000000
z214z18z1                     1.000000
z214z228z1                    1.000000
z214z1z1                      1.000000
z214z245z1                    1.000000
s174                          4.684570
z174z210z1                    1.000000
z174z18z1                     1.000000
z174z228z1                    1.000000
z174z1z1                      1.000000
z174z245z1                    1.000000
z47z184z3                     1.000000
z18z245z1                     1.000000
All other variables in the range 1-1684 are 0.
